2024/4/15 基础框架搭建
2024/7/15 添加轴承必要过盈量计算
2024/7/15 添加CRB轴承端面接触点高度计算
2024/7/17 添加Von-Mises stress和MaxShearStress到BOT1