2024/4/15 基础框架部分搭建
2024/6/15 添加轴承必要过盈量计算
2024/7/15 添加CRB轴承端面接触点高度计算
2024/7/17 添加Von-Mises stress和MaxShearStress到BOT1
2024/7/31 添加巴黎Paris奥运会Gif动图
2024/7/31 添加《大奥~华之乱》BGM音乐
2024/7/31 优化《大奥~华之乱》BGM音乐自动播放模式，并添加control bar。
2024/8/19 添加BOT4质量计算功能
2024/8/21 添加中英文切换按钮功能
2024/8/21 添加"Classical Papers"Tab